3 3 2
30 2 23 1 29 2 1 0 9 1 11 2 42 1 30 0 17 2 46 0 40 2 23 1 8 0 40 2 11 1 23 0 4 2 40 1 41 2 48 1 35 0 14 2 31 1 1 0 34 2 17 1 0 0 13 1 15 2 40 1 11 
30 0 47 1 11 0 10 2 7 0 31 2 46 1 19 0 35 2 16 0 20 2 6 0 34 2 48 0 7 2 17 1 41 0 45 1 42 2 45 1 39 0 10 2 26 0 37 1 21 0 19 1 46 0 0 2 8 1 24 2 1 
30 0 49 1 24 2 36 1 15 2 2 1 6 0 19 1 40 2 6 0 39 1 5 0 5 1 1 2 25 0 0 2 47 0 32 2 27 0 36 1 1 2 1 1 35 0 43 2 27 0 22 1 40 0 11 1 1 0 6 2 14 

-------------
